c This is an instance of the exact track of PACE 2020 Challenge, see https://pacechallenge.org/2020/ 
c TYPE: generated 
c ORIGIN: Python networkx package 
c DESCRIPTION: A cycle graph on p nodes with chords joining each vertex x to its inverse modulo p. This graph is a (mildly explicit) 3-regular expander. Generated using chordal_cycle_graph function from Python’s networkx package 
p tdp 131 193
1 2
1 3
2 101
3 4
4 5
4 6
5 7
5 8
6 100
6 102
7 9
7 10
8 71
8 74
9 11
9 12
10 57
10 50
11 13
11 14
12 124
12 126
13 15
13 16
14 39
14 42
15 17
15 18
16 110
16 85
17 19
17 20
18 92
18 56
19 21
19 22
20 82
20 28
21 23
22 52
22 130
23 24
24 25
24 26
25 27
25 28
26 131
26 54
27 29
27 30
28 124
29 31
29 32
30 50
30 60
31 33
31 34
32 67
32 70
33 35
33 36
34 87
34 90
35 37
35 38
36 83
36 86
37 39
37 40
38 103
38 106
39 41
40 94
40 96
41 43
41 46
42 43
42 44
43 45
44 91
44 94
45 106
45 108
46 47
46 48
47 49
47 50
48 129
48 125
49 51
49 52
51 53
51 54
52 122
53 55
53 56
54 84
55 57
55 58
56 68
57 59
58 80
58 78
59 64
59 116
60 61
60 62
61 63
61 64
62 118
62 80
63 65
63 66
64 68
65 67
65 68
66 76
66 82
67 69
69 78
69 120
70 71
70 72
71 73
72 112
72 105
73 88
73 100
74 75
74 76
75 77
75 78
76 123
77 79
77 80
79 81
79 82
81 83
81 84
83 85
84 93
85 112
86 87
86 88
87 89
88 98
89 104
89 118
90 91
90 92
91 93
92 114
93 129
94 95
95 96
95 98
96 97
97 126
97 111
98 99
99 109
99 115
100 101
101 117
102 103
102 104
103 105
104 116
105 114
106 107
107 108
107 110
108 109
109 127
110 111
111 128
112 113
113 115
113 119
114 115
116 117
117 125
118 119
119 122
120 121
120 122
121 123
121 124
123 125
126 127
127 128
128 129
130 131
